(set-logic HORN)
(declare-fun WRAP (Int) Bool)
(declare-fun NEST (Int) Bool)
(declare-fun fail () Bool)
(assert (forall ((m Int)) (=> (= m 0) (WRAP m))))
(assert (forall ((m Int)) (=> (WRAP m) (NEST m))))
(assert (forall ((m1 Int) (m Int)) (=> (and (NEST m) (= m1 (+ m 1))) (NEST m1))))
(assert (forall ((m Int)) (=> (NEST m) (WRAP m))))
(assert (forall ((m Int)) (=> (and (WRAP m) (not (< m 15))) fail)))
(assert (=> fail false))
(check-sat)
